NAME: tsp25_16
COMMENT: 25-tsp problem (Padberg/Rinaldi)
TYPE: TSP
DIMENSION: 25
EDGE_WEIGHT_TYPE : EUC_2D
NODE_COORD_SECTION
1 22 25
2 15 15
3 31 36
4 37 22
5 38 17
6 16 34
7 32 37
8 10 36
9 15 29
10 15 2
11 3 36
12 2 2
13 11 31
14 17 17
15 10 13
16 39 17
17 10 30
18 28 38
19 17 35
20 32 35
21 38 6
22 7 9
23 32 37
24 6 34
25 12 12
